DATASET = "thpack2";
INSTANCE = "037";

WIDTH = 233;
HEIGHT = 220;
LENGTH = 587;

NO_OF_SHAPES = 5;
size = [|
  98,73,44 |
  60,60,38 |
  105,73,60 |
  90,77,52 |
  66,58,24 |
|];

verticality = [|
  0,1,1 |
  1,1,1 |
  1,1,1 |
  1,1,1 |
  0,0,1 |
|];

box_count = [
  20,
  16,
  23,
  24,
  22,
];
